c nIsolatedPIs 4
c maxPI 131
p cnf 754 1870
c gate 132 -88 -126 0
-88 -132 0
-126 -132 0
88 126 132 0
c gate 133 -86 126 0
-86 -133 0
126 -133 0
86 -126 133 0
c gate 134 125 -133 0
125 -134 0
-133 -134 0
-125 133 134 0
c gate 135 -132 134 0
-132 -135 0
134 -135 0
132 -134 135 0
c gate 136 -89 -126 0
-89 -136 0
-126 -136 0
89 126 136 0
c gate 137 -87 126 0
-87 -137 0
126 -137 0
87 -126 137 0
c gate 138 -136 -137 0
-136 -138 0
-137 -138 0
136 137 138 0
c gate 139 -125 138 0
-125 -139 0
138 -139 0
125 -138 139 0
c gate 140 128 -139 0
128 -140 0
-139 -140 0
-128 139 140 0
c gate 141 -135 140 0
-135 -141 0
140 -141 0
135 -140 141 0
c gate 142 -96 -126 0
-96 -142 0
-126 -142 0
96 126 142 0
c gate 143 -94 126 0
-94 -143 0
126 -143 0
94 -126 143 0
c gate 144 125 -143 0
125 -144 0
-143 -144 0
-125 143 144 0
c gate 145 -142 144 0
-142 -145 0
144 -145 0
142 -144 145 0
c gate 146 -97 -126 0
-97 -146 0
-126 -146 0
97 126 146 0
c gate 147 -95 126 0
-95 -147 0
126 -147 0
95 -126 147 0
c gate 148 -146 -147 0
-146 -148 0
-147 -148 0
146 147 148 0
c gate 149 -125 148 0
-125 -149 0
148 -149 0
125 -148 149 0
c gate 150 -128 -149 0
-128 -150 0
-149 -150 0
128 149 150 0
c gate 151 -145 150 0
-145 -151 0
150 -151 0
145 -150 151 0
c gate 152 -127 -151 0
-127 -152 0
-151 -152 0
127 151 152 0
c gate 153 -141 152 0
-141 -153 0
152 -153 0
141 -152 153 0
c gate 154 -92 -126 0
-92 -154 0
-126 -154 0
92 126 154 0
c gate 155 -90 126 0
-90 -155 0
126 -155 0
90 -126 155 0
c gate 156 125 -155 0
125 -156 0
-155 -156 0
-125 155 156 0
c gate 157 -154 156 0
-154 -157 0
156 -157 0
154 -156 157 0
c gate 158 -93 -126 0
-93 -158 0
-126 -158 0
93 126 158 0
c gate 159 -91 126 0
-91 -159 0
126 -159 0
91 -126 159 0
c gate 160 -158 -159 0
-158 -160 0
-159 -160 0
158 159 160 0
c gate 161 -125 160 0
-125 -161 0
160 -161 0
125 -160 161 0
c gate 162 -128 -161 0
-128 -162 0
-161 -162 0
128 161 162 0
c gate 163 -157 162 0
-157 -163 0
162 -163 0
157 -162 163 0
c gate 164 -83 126 0
-83 -164 0
126 -164 0
83 -126 164 0
c gate 165 -85 -126 0
-85 -165 0
-126 -165 0
85 126 165 0
c gate 166 -125 -165 0
-125 -166 0
-165 -166 0
125 165 166 0
c gate 167 -164 166 0
-164 -167 0
166 -167 0
164 -166 167 0
c gate 168 -82 126 0
-82 -168 0
126 -168 0
82 -126 168 0
c gate 169 -84 -126 0
-84 -169 0
-126 -169 0
84 126 169 0
c gate 170 125 -169 0
125 -170 0
-169 -170 0
-125 169 170 0
c gate 171 -168 170 0
-168 -171 0
170 -171 0
168 -170 171 0
c gate 172 128 -171 0
128 -172 0
-171 -172 0
-128 171 172 0
c gate 173 -167 172 0
-167 -173 0
172 -173 0
167 -172 173 0
c gate 174 127 -173 0
127 -174 0
-173 -174 0
-127 173 174 0
c gate 175 -163 174 0
-163 -175 0
174 -175 0
163 -174 175 0
c gate 176 -153 -175 0
-153 -176 0
-175 -176 0
153 175 176 0
c gate 177 130 -176 0
130 -177 0
-176 -177 0
-130 176 177 0
c gate 178 -118 -126 0
-118 -178 0
-126 -178 0
118 126 178 0
c gate 179 -116 126 0
-116 -179 0
126 -179 0
116 -126 179 0
c gate 180 125 -179 0
125 -180 0
-179 -180 0
-125 179 180 0
c gate 181 -178 180 0
-178 -181 0
180 -181 0
178 -180 181 0
c gate 182 -119 -126 0
-119 -182 0
-126 -182 0
119 126 182 0
c gate 183 -117 126 0
-117 -183 0
126 -183 0
117 -126 183 0
c gate 184 -182 -183 0
-182 -184 0
-183 -184 0
182 183 184 0
c gate 185 -125 184 0
-125 -185 0
184 -185 0
125 -184 185 0
c gate 186 128 -185 0
128 -186 0
-185 -186 0
-128 185 186 0
c gate 187 -181 186 0
-181 -187 0
186 -187 0
181 -186 187 0
c gate 188 -2 -126 0
-2 -188 0
-126 -188 0
2 126 188 0
c gate 189 -124 126 0
-124 -189 0
126 -189 0
124 -126 189 0
c gate 190 125 -189 0
125 -190 0
-189 -190 0
-125 189 190 0
c gate 191 -188 190 0
-188 -191 0
190 -191 0
188 -190 191 0
c gate 192 -3 -126 0
-3 -192 0
-126 -192 0
3 126 192 0
c gate 193 -1 126 0
-1 -193 0
126 -193 0
1 -126 193 0
c gate 194 -192 -193 0
-192 -194 0
-193 -194 0
192 193 194 0
c gate 195 -125 194 0
-125 -195 0
194 -195 0
125 -194 195 0
c gate 196 -128 -195 0
-128 -196 0
-195 -196 0
128 195 196 0
c gate 197 -191 196 0
-191 -197 0
196 -197 0
191 -196 197 0
c gate 198 -127 -197 0
-127 -198 0
-197 -198 0
127 197 198 0
c gate 199 -187 198 0
-187 -199 0
198 -199 0
187 -198 199 0
c gate 200 -122 -126 0
-122 -200 0
-126 -200 0
122 126 200 0
c gate 201 -120 126 0
-120 -201 0
126 -201 0
120 -126 201 0
c gate 202 125 -201 0
125 -202 0
-201 -202 0
-125 201 202 0
c gate 203 -200 202 0
-200 -203 0
202 -203 0
200 -202 203 0
c gate 204 -123 -126 0
-123 -204 0
-126 -204 0
123 126 204 0
c gate 205 -121 126 0
-121 -205 0
126 -205 0
121 -126 205 0
c gate 206 -204 -205 0
-204 -206 0
-205 -206 0
204 205 206 0
c gate 207 -125 206 0
-125 -207 0
206 -207 0
125 -206 207 0
c gate 208 -128 -207 0
-128 -208 0
-207 -208 0
128 207 208 0
c gate 209 -203 208 0
-203 -209 0
208 -209 0
203 -208 209 0
c gate 210 -113 126 0
-113 -210 0
126 -210 0
113 -126 210 0
c gate 211 -115 -126 0
-115 -211 0
-126 -211 0
115 126 211 0
c gate 212 -125 -211 0
-125 -212 0
-211 -212 0
125 211 212 0
c gate 213 -210 212 0
-210 -213 0
212 -213 0
210 -212 213 0
c gate 214 -112 126 0
-112 -214 0
126 -214 0
112 -126 214 0
c gate 215 -114 -126 0
-114 -215 0
-126 -215 0
114 126 215 0
c gate 216 125 -215 0
125 -216 0
-215 -216 0
-125 215 216 0
c gate 217 -214 216 0
-214 -217 0
216 -217 0
214 -216 217 0
c gate 218 128 -217 0
128 -218 0
-217 -218 0
-128 217 218 0
c gate 219 -213 218 0
-213 -219 0
218 -219 0
213 -218 219 0
c gate 220 127 -219 0
127 -220 0
-219 -220 0
-127 219 220 0
c gate 221 -209 220 0
-209 -221 0
220 -221 0
209 -220 221 0
c gate 222 -199 -221 0
-199 -222 0
-221 -222 0
199 221 222 0
c gate 223 -130 -222 0
-130 -223 0
-222 -223 0
130 222 223 0
c gate 224 129 -223 0
129 -224 0
-223 -224 0
-129 223 224 0
c gate 225 -177 224 0
-177 -225 0
224 -225 0
177 -224 225 0
c gate 226 131 225 0
131 -226 0
225 -226 0
-131 -225 226 0
c gate 227 -72 126 0
-72 -227 0
126 -227 0
72 -126 227 0
c gate 228 -74 -126 0
-74 -228 0
-126 -228 0
74 126 228 0
c gate 229 -227 -228 0
-227 -229 0
-228 -229 0
227 228 229 0
c gate 230 125 229 0
125 -230 0
229 -230 0
-125 -229 230 0
c gate 231 -75 -126 0
-75 -231 0
-126 -231 0
75 126 231 0
c gate 232 -73 126 0
-73 -232 0
126 -232 0
73 -126 232 0
c gate 233 -231 -232 0
-231 -233 0
-232 -233 0
231 232 233 0
c gate 234 -125 233 0
-125 -234 0
233 -234 0
125 -233 234 0
c gate 235 -128 -234 0
-128 -235 0
-234 -235 0
128 234 235 0
c gate 236 -230 235 0
-230 -236 0
235 -236 0
230 -235 236 0
c gate 237 -64 126 0
-64 -237 0
126 -237 0
64 -126 237 0
c gate 238 -66 -126 0
-66 -238 0
-126 -238 0
66 126 238 0
c gate 239 -237 -238 0
-237 -239 0
-238 -239 0
237 238 239 0
c gate 240 125 239 0
125 -240 0
239 -240 0
-125 -239 240 0
c gate 241 -67 -126 0
-67 -241 0
-126 -241 0
67 126 241 0
c gate 242 -65 126 0
-65 -242 0
126 -242 0
65 -126 242 0
c gate 243 -241 -242 0
-241 -243 0
-242 -243 0
241 242 243 0
c gate 244 -125 243 0
-125 -244 0
243 -244 0
125 -243 244 0
c gate 245 128 -244 0
128 -245 0
-244 -245 0
-128 244 245 0
c gate 246 -240 245 0
-240 -246 0
245 -246 0
240 -245 246 0
c gate 247 -236 -246 0
-236 -247 0
-246 -247 0
236 246 247 0
c gate 248 127 -247 0
127 -248 0
-247 -248 0
-127 247 248 0
c gate 249 -68 126 0
-68 -249 0
126 -249 0
68 -126 249 0
c gate 250 -70 -126 0
-70 -250 0
-126 -250 0
70 126 250 0
c gate 251 -249 -250 0
-249 -251 0
-250 -251 0
249 250 251 0
c gate 252 125 251 0
125 -252 0
251 -252 0
-125 -251 252 0
c gate 253 -71 -126 0
-71 -253 0
-126 -253 0
71 126 253 0
c gate 254 -69 126 0
-69 -254 0
126 -254 0
69 -126 254 0
c gate 255 -253 -254 0
-253 -255 0
-254 -255 0
253 254 255 0
c gate 256 -125 255 0
-125 -256 0
255 -256 0
125 -255 256 0
c gate 257 128 -256 0
128 -257 0
-256 -257 0
-128 256 257 0
c gate 258 -252 257 0
-252 -258 0
257 -258 0
252 -257 258 0
c gate 259 -76 126 0
-76 -259 0
126 -259 0
76 -126 259 0
c gate 260 -78 -126 0
-78 -260 0
-126 -260 0
78 126 260 0
c gate 261 -259 -260 0
-259 -261 0
-260 -261 0
259 260 261 0
c gate 262 125 261 0
125 -262 0
261 -262 0
-125 -261 262 0
c gate 263 -79 -126 0
-79 -263 0
-126 -263 0
79 126 263 0
c gate 264 -77 126 0
-77 -264 0
126 -264 0
77 -126 264 0
c gate 265 -263 -264 0
-263 -265 0
-264 -265 0
263 264 265 0
c gate 266 -125 265 0
-125 -266 0
265 -266 0
125 -265 266 0
c gate 267 -128 -266 0
-128 -267 0
-266 -267 0
128 266 267 0
c gate 268 -262 267 0
-262 -268 0
267 -268 0
262 -267 268 0
c gate 269 -258 -268 0
-258 -269 0
-268 -269 0
258 268 269 0
c gate 270 -127 -269 0
-127 -270 0
-269 -270 0
127 269 270 0
c gate 271 130 -270 0
130 -271 0
-270 -271 0
-130 270 271 0
c gate 272 -248 271 0
-248 -272 0
271 -272 0
248 -271 272 0
c gate 273 -100 126 0
-100 -273 0
126 -273 0
100 -126 273 0
c gate 274 -102 -126 0
-102 -274 0
-126 -274 0
102 126 274 0
c gate 275 -273 -274 0
-273 -275 0
-274 -275 0
273 274 275 0
c gate 276 125 275 0
125 -276 0
275 -276 0
-125 -275 276 0
c gate 277 -103 -126 0
-103 -277 0
-126 -277 0
103 126 277 0
c gate 278 -101 126 0
-101 -278 0
126 -278 0
101 -126 278 0
c gate 279 -125 -278 0
-125 -279 0
-278 -279 0
125 278 279 0
c gate 280 -277 279 0
-277 -280 0
279 -280 0
277 -279 280 0
c gate 281 128 -280 0
128 -281 0
-280 -281 0
-128 280 281 0
c gate 282 -276 281 0
-276 -282 0
281 -282 0
276 -281 282 0
c gate 283 -109 126 0
-109 -283 0
126 -283 0
109 -126 283 0
c gate 284 -111 -126 0
-111 -284 0
-126 -284 0
111 126 284 0
c gate 285 -125 -284 0
-125 -285 0
-284 -285 0
125 284 285 0
c gate 286 -283 285 0
-283 -286 0
285 -286 0
283 -285 286 0
c gate 287 -108 126 0
-108 -287 0
126 -287 0
108 -126 287 0
c gate 288 -110 -126 0
-110 -288 0
-126 -288 0
110 126 288 0
c gate 289 125 -288 0
125 -289 0
-288 -289 0
-125 288 289 0
c gate 290 -287 289 0
-287 -290 0
289 -290 0
287 -289 290 0
c gate 291 -128 -290 0
-128 -291 0
-290 -291 0
128 290 291 0
c gate 292 -286 291 0
-286 -292 0
291 -292 0
286 -291 292 0
c gate 293 -127 -292 0
-127 -293 0
-292 -293 0
127 292 293 0
c gate 294 -282 293 0
-282 -294 0
293 -294 0
282 -293 294 0
c gate 295 -96 126 0
-96 -295 0
126 -295 0
96 -126 295 0
c gate 296 -98 -126 0
-98 -296 0
-126 -296 0
98 126 296 0
c gate 297 -295 -296 0
-295 -297 0
-296 -297 0
295 296 297 0
c gate 298 125 297 0
125 -298 0
297 -298 0
-125 -297 298 0
c gate 299 -99 -126 0
-99 -299 0
-126 -299 0
99 126 299 0
c gate 300 -97 126 0
-97 -300 0
126 -300 0
97 -126 300 0
c gate 301 -125 -300 0
-125 -301 0
-300 -301 0
125 300 301 0
c gate 302 -299 301 0
-299 -302 0
301 -302 0
299 -301 302 0
c gate 303 128 -302 0
128 -303 0
-302 -303 0
-128 302 303 0
c gate 304 -298 303 0
-298 -304 0
303 -304 0
298 -303 304 0
c gate 305 -105 126 0
-105 -305 0
126 -305 0
105 -126 305 0
c gate 306 -107 -126 0
-107 -306 0
-126 -306 0
107 126 306 0
c gate 307 -125 -306 0
-125 -307 0
-306 -307 0
125 306 307 0
c gate 308 -305 307 0
-305 -308 0
307 -308 0
305 -307 308 0
c gate 309 -104 126 0
-104 -309 0
126 -309 0
104 -126 309 0
c gate 310 -106 -126 0
-106 -310 0
-126 -310 0
106 126 310 0
c gate 311 125 -310 0
125 -311 0
-310 -311 0
-125 310 311 0
c gate 312 -309 311 0
-309 -312 0
311 -312 0
309 -311 312 0
c gate 313 -128 -312 0
-128 -313 0
-312 -313 0
128 312 313 0
c gate 314 -308 313 0
-308 -314 0
313 -314 0
308 -313 314 0
c gate 315 127 -314 0
127 -315 0
-314 -315 0
-127 314 315 0
c gate 316 -304 315 0
-304 -316 0
315 -316 0
304 -315 316 0
c gate 317 -294 -316 0
-294 -317 0
-316 -317 0
294 316 317 0
c gate 318 -130 -317 0
-130 -318 0
-317 -318 0
130 317 318 0
c gate 319 129 -318 0
129 -319 0
-318 -319 0
-129 318 319 0
c gate 320 -272 319 0
-272 -320 0
319 -320 0
272 -319 320 0
c gate 321 131 320 0
131 -321 0
320 -321 0
-131 -320 321 0
c gate 322 -38 126 0
-38 -322 0
126 -322 0
38 -126 322 0
c gate 323 -40 -126 0
-40 -323 0
-126 -323 0
40 126 323 0
c gate 324 -125 -323 0
-125 -324 0
-323 -324 0
125 323 324 0
c gate 325 -322 324 0
-322 -325 0
324 -325 0
322 -324 325 0
c gate 326 -37 126 0
-37 -326 0
126 -326 0
37 -126 326 0
c gate 327 -39 -126 0
-39 -327 0
-126 -327 0
39 126 327 0
c gate 328 125 -327 0
125 -328 0
-327 -328 0
-125 327 328 0
c gate 329 -326 328 0
-326 -329 0
328 -329 0
326 -328 329 0
c gate 330 128 -329 0
128 -330 0
-329 -330 0
-128 329 330 0
c gate 331 -325 330 0
-325 -331 0
330 -331 0
325 -330 331 0
c gate 332 -45 126 0
-45 -332 0
126 -332 0
45 -126 332 0
c gate 333 -47 -126 0
-47 -333 0
-126 -333 0
47 126 333 0
c gate 334 125 -333 0
125 -334 0
-333 -334 0
-125 333 334 0
c gate 335 -332 334 0
-332 -335 0
334 -335 0
332 -334 335 0
c gate 336 -46 126 0
-46 -336 0
126 -336 0
46 -126 336 0
c gate 337 -48 -126 0
-48 -337 0
-126 -337 0
48 126 337 0
c gate 338 -125 -337 0
-125 -338 0
-337 -338 0
125 337 338 0
c gate 339 -336 338 0
-336 -339 0
338 -339 0
336 -338 339 0
c gate 340 -335 -339 0
-335 -340 0
-339 -340 0
335 339 340 0
c gate 341 -128 340 0
-128 -341 0
340 -341 0
128 -340 341 0
c gate 342 -127 -341 0
-127 -342 0
-341 -342 0
127 341 342 0
c gate 343 -331 342 0
-331 -343 0
342 -343 0
331 -342 343 0
c gate 344 -34 126 0
-34 -344 0
126 -344 0
34 -126 344 0
c gate 345 -36 -126 0
-36 -345 0
-126 -345 0
36 126 345 0
c gate 346 -125 -345 0
-125 -346 0
-345 -346 0
125 345 346 0
c gate 347 -344 346 0
-344 -347 0
346 -347 0
344 -346 347 0
c gate 348 -33 126 0
-33 -348 0
126 -348 0
33 -126 348 0
c gate 349 -35 -126 0
-35 -349 0
-126 -349 0
35 126 349 0
c gate 350 125 -349 0
125 -350 0
-349 -350 0
-125 349 350 0
c gate 351 -348 350 0
-348 -351 0
350 -351 0
348 -350 351 0
c gate 352 128 -351 0
128 -352 0
-351 -352 0
-128 351 352 0
c gate 353 -347 352 0
-347 -353 0
352 -353 0
347 -352 353 0
c gate 354 -41 126 0
-41 -354 0
126 -354 0
41 -126 354 0
c gate 355 -43 -126 0
-43 -355 0
-126 -355 0
43 126 355 0
c gate 356 125 -355 0
125 -356 0
-355 -356 0
-125 355 356 0
c gate 357 -354 356 0
-354 -357 0
356 -357 0
354 -356 357 0
c gate 358 -42 126 0
-42 -358 0
126 -358 0
42 -126 358 0
c gate 359 -44 -126 0
-44 -359 0
-126 -359 0
44 126 359 0
c gate 360 -125 -359 0
-125 -360 0
-359 -360 0
125 359 360 0
c gate 361 -358 360 0
-358 -361 0
360 -361 0
358 -360 361 0
c gate 362 -357 -361 0
-357 -362 0
-361 -362 0
357 361 362 0
c gate 363 -128 362 0
-128 -363 0
362 -363 0
128 -362 363 0
c gate 364 127 -363 0
127 -364 0
-363 -364 0
-127 363 364 0
c gate 365 -353 364 0
-353 -365 0
364 -365 0
353 -364 365 0
c gate 366 -343 -365 0
-343 -366 0
-365 -366 0
343 365 366 0
c gate 367 130 -366 0
130 -367 0
-366 -367 0
-130 366 367 0
c gate 368 125 243 0
125 -368 0
243 -368 0
-125 -243 368 0
c gate 369 -66 126 0
-66 -369 0
126 -369 0
66 -126 369 0
c gate 370 -68 -126 0
-68 -370 0
-126 -370 0
68 126 370 0
c gate 371 -125 -370 0
-125 -371 0
-370 -371 0
125 370 371 0
c gate 372 -369 371 0
-369 -372 0
371 -372 0
369 -371 372 0
c gate 373 128 -372 0
128 -373 0
-372 -373 0
-128 372 373 0
c gate 374 -368 373 0
-368 -374 0
373 -374 0
368 -373 374 0
c gate 375 125 233 0
125 -375 0
233 -375 0
-125 -233 375 0
c gate 376 -74 126 0
-74 -376 0
126 -376 0
74 -126 376 0
c gate 377 -76 -126 0
-76 -377 0
-126 -377 0
76 126 377 0
c gate 378 -125 -377 0
-125 -378 0
-377 -378 0
125 377 378 0
c gate 379 -376 378 0
-376 -379 0
378 -379 0
376 -378 379 0
c gate 380 -128 -379 0
-128 -380 0
-379 -380 0
128 379 380 0
c gate 381 -375 380 0
-375 -381 0
380 -381 0
375 -380 381 0
c gate 382 -374 -381 0
-374 -382 0
-381 -382 0
374 381 382 0
c gate 383 127 -382 0
127 -383 0
-382 -383 0
-127 382 383 0
c gate 384 125 265 0
125 -384 0
265 -384 0
-125 -265 384 0
c gate 385 -78 126 0
-78 -385 0
126 -385 0
78 -126 385 0
c gate 386 -80 -126 0
-80 -386 0
-126 -386 0
80 126 386 0
c gate 387 -125 -386 0
-125 -387 0
-386 -387 0
125 386 387 0
c gate 388 -385 387 0
-385 -388 0
387 -388 0
385 -387 388 0
c gate 389 -128 -388 0
-128 -389 0
-388 -389 0
128 388 389 0
c gate 390 -384 389 0
-384 -390 0
389 -390 0
384 -389 390 0
c gate 391 125 255 0
125 -391 0
255 -391 0
-125 -255 391 0
c gate 392 -70 126 0
-70 -392 0
126 -392 0
70 -126 392 0
c gate 393 -72 -126 0
-72 -393 0
-126 -393 0
72 126 393 0
c gate 394 -125 -393 0
-125 -394 0
-393 -394 0
125 393 394 0
c gate 395 -392 394 0
-392 -395 0
394 -395 0
392 -394 395 0
c gate 396 128 -395 0
128 -396 0
-395 -396 0
-128 395 396 0
c gate 397 -391 396 0
-391 -397 0
396 -397 0
391 -396 397 0
c gate 398 -390 -397 0
-390 -398 0
-397 -398 0
390 397 398 0
c gate 399 -127 -398 0
-127 -399 0
-398 -399 0
127 398 399 0
c gate 400 -130 -399 0
-130 -400 0
-399 -400 0
130 399 400 0
c gate 401 -383 400 0
-383 -401 0
400 -401 0
383 -400 401 0
c gate 402 -367 -401 0
-367 -402 0
-401 -402 0
367 401 402 0
c gate 403 129 -402 0
129 -403 0
-402 -403 0
-129 402 403 0
c gate 404 131 403 0
131 -404 0
403 -404 0
-131 -403 404 0
c gate 405 128 340 0
128 -405 0
340 -405 0
-128 -340 405 0
c gate 406 -54 126 0
-54 -406 0
126 -406 0
54 -126 406 0
c gate 407 -56 -126 0
-56 -407 0
-126 -407 0
56 126 407 0
c gate 408 -125 -407 0
-125 -408 0
-407 -408 0
125 407 408 0
c gate 409 -406 408 0
-406 -409 0
408 -409 0
406 -408 409 0
c gate 410 -53 126 0
-53 -410 0
126 -410 0
53 -126 410 0
c gate 411 -55 -126 0
-55 -411 0
-126 -411 0
55 126 411 0
c gate 412 125 -411 0
125 -412 0
-411 -412 0
-125 411 412 0
c gate 413 -410 412 0
-410 -413 0
412 -413 0
410 -412 413 0
c gate 414 -128 -413 0
-128 -414 0
-413 -414 0
128 413 414 0
c gate 415 -409 414 0
-409 -415 0
414 -415 0
409 -414 415 0
c gate 416 -127 -415 0
-127 -416 0
-415 -416 0
127 415 416 0
c gate 417 -405 416 0
-405 -417 0
416 -417 0
405 -416 417 0
c gate 418 128 362 0
128 -418 0
362 -418 0
-128 -362 418 0
c gate 419 -50 126 0
-50 -419 0
126 -419 0
50 -126 419 0
c gate 420 -52 -126 0
-52 -420 0
-126 -420 0
52 126 420 0
c gate 421 -125 -420 0
-125 -421 0
-420 -421 0
125 420 421 0
c gate 422 -419 421 0
-419 -422 0
421 -422 0
419 -421 422 0
c gate 423 -49 126 0
-49 -423 0
126 -423 0
49 -126 423 0
c gate 424 -51 -126 0
-51 -424 0
-126 -424 0
51 126 424 0
c gate 425 125 -424 0
125 -425 0
-424 -425 0
-125 424 425 0
c gate 426 -423 425 0
-423 -426 0
425 -426 0
423 -425 426 0
c gate 427 -128 -426 0
-128 -427 0
-426 -427 0
128 426 427 0
c gate 428 -422 427 0
-422 -428 0
427 -428 0
422 -427 428 0
c gate 429 127 -428 0
127 -429 0
-428 -429 0
-127 428 429 0
c gate 430 -418 429 0
-418 -430 0
429 -430 0
418 -429 430 0
c gate 431 -417 -430 0
-417 -431 0
-430 -431 0
417 430 431 0
c gate 432 -130 -431 0
-130 -432 0
-431 -432 0
130 431 432 0
c gate 433 12 -126 0
12 -433 0
-126 -433 0
-12 126 433 0
c gate 434 10 126 0
10 -434 0
126 -434 0
-10 -126 434 0
c gate 435 -125 -434 0
-125 -435 0
-434 -435 0
125 434 435 0
c gate 436 -433 435 0
-433 -436 0
435 -436 0
433 -435 436 0
c gate 437 11 -126 0
11 -437 0
-126 -437 0
-11 126 437 0
c gate 438 9 126 0
9 -438 0
126 -438 0
-9 -126 438 0
c gate 439 125 -438 0
125 -439 0
-438 -439 0
-125 438 439 0
c gate 440 -437 439 0
-437 -440 0
439 -440 0
437 -439 440 0
c gate 441 -436 -440 0
-436 -441 0
-440 -441 0
436 440 441 0
c gate 442 128 -441 0
128 -442 0
-441 -442 0
-128 441 442 0
c gate 443 19 -126 0
19 -443 0
-126 -443 0
-19 126 443 0
c gate 444 17 126 0
17 -444 0
126 -444 0
-17 -126 444 0
c gate 445 125 -444 0
125 -445 0
-444 -445 0
-125 444 445 0
c gate 446 -443 445 0
-443 -446 0
445 -446 0
443 -445 446 0
c gate 447 20 -126 0
20 -447 0
-126 -447 0
-20 126 447 0
c gate 448 18 126 0
18 -448 0
126 -448 0
-18 -126 448 0
c gate 449 -125 -448 0
-125 -449 0
-448 -449 0
125 448 449 0
c gate 450 -447 449 0
-447 -450 0
449 -450 0
447 -449 450 0
c gate 451 -446 -450 0
-446 -451 0
-450 -451 0
446 450 451 0
c gate 452 -128 -451 0
-128 -452 0
-451 -452 0
128 451 452 0
c gate 453 127 -452 0
127 -453 0
-452 -453 0
-127 452 453 0
c gate 454 -442 453 0
-442 -454 0
453 -454 0
442 -453 454 0
c gate 455 16 -126 0
16 -455 0
-126 -455 0
-16 126 455 0
c gate 456 14 126 0
14 -456 0
126 -456 0
-14 -126 456 0
c gate 457 -125 -456 0
-125 -457 0
-456 -457 0
125 456 457 0
c gate 458 -455 457 0
-455 -458 0
457 -458 0
455 -457 458 0
c gate 459 15 -126 0
15 -459 0
-126 -459 0
-15 126 459 0
c gate 460 13 126 0
13 -460 0
126 -460 0
-13 -126 460 0
c gate 461 125 -460 0
125 -461 0
-460 -461 0
-125 460 461 0
c gate 462 -459 461 0
-459 -462 0
461 -462 0
459 -461 462 0
c gate 463 -458 -462 0
-458 -463 0
-462 -463 0
458 462 463 0
c gate 464 128 -463 0
128 -464 0
-463 -464 0
-128 463 464 0
c gate 465 23 -126 0
23 -465 0
-126 -465 0
-23 126 465 0
c gate 466 21 126 0
21 -466 0
126 -466 0
-21 -126 466 0
c gate 467 125 -466 0
125 -467 0
-466 -467 0
-125 466 467 0
c gate 468 -465 467 0
-465 -468 0
467 -468 0
465 -467 468 0
c gate 469 24 -126 0
24 -469 0
-126 -469 0
-24 126 469 0
c gate 470 22 126 0
22 -470 0
126 -470 0
-22 -126 470 0
c gate 471 -125 -470 0
-125 -471 0
-470 -471 0
125 470 471 0
c gate 472 -469 471 0
-469 -472 0
471 -472 0
469 -471 472 0
c gate 473 -468 -472 0
-468 -473 0
-472 -473 0
468 472 473 0
c gate 474 -128 -473 0
-128 -474 0
-473 -474 0
128 473 474 0
c gate 475 -127 -474 0
-127 -475 0
-474 -475 0
127 474 475 0
c gate 476 -464 475 0
-464 -476 0
475 -476 0
464 -475 476 0
c gate 477 -454 -476 0
-454 -477 0
-476 -477 0
454 476 477 0
c gate 478 130 -477 0
130 -478 0
-477 -478 0
-130 477 478 0
c gate 479 -432 -478 0
-432 -479 0
-478 -479 0
432 478 479 0
c gate 480 129 -479 0
129 -480 0
-479 -480 0
-129 479 480 0
c gate 481 131 480 0
131 -481 0
480 -481 0
-131 -480 481 0
c gate 482 -67 126 0
-67 -482 0
126 -482 0
67 -126 482 0
c gate 483 -69 -126 0
-69 -483 0
-126 -483 0
69 126 483 0
c gate 484 125 -483 0
125 -484 0
-483 -484 0
-125 483 484 0
c gate 485 -482 484 0
-482 -485 0
484 -485 0
482 -484 485 0
c gate 486 -125 251 0
-125 -486 0
251 -486 0
125 -251 486 0
c gate 487 128 -486 0
128 -487 0
-486 -487 0
-128 486 487 0
c gate 488 -485 487 0
-485 -488 0
487 -488 0
485 -487 488 0
c gate 489 -75 126 0
-75 -489 0
126 -489 0
75 -126 489 0
c gate 490 -77 -126 0
-77 -490 0
-126 -490 0
77 126 490 0
c gate 491 125 -490 0
125 -491 0
-490 -491 0
-125 490 491 0
c gate 492 -489 491 0
-489 -492 0
491 -492 0
489 -491 492 0
c gate 493 -125 261 0
-125 -493 0
261 -493 0
125 -261 493 0
c gate 494 -128 -493 0
-128 -494 0
-493 -494 0
128 493 494 0
c gate 495 -492 494 0
-492 -495 0
494 -495 0
492 -494 495 0
c gate 496 127 -495 0
127 -496 0
-495 -496 0
-127 495 496 0
c gate 497 -488 496 0
-488 -497 0
496 -497 0
488 -496 497 0
c gate 498 -71 126 0
-71 -498 0
126 -498 0
71 -126 498 0
c gate 499 -73 -126 0
-73 -499 0
-126 -499 0
73 126 499 0
c gate 500 125 -499 0
125 -500 0
-499 -500 0
-125 499 500 0
c gate 501 -498 500 0
-498 -501 0
500 -501 0
498 -500 501 0
c gate 502 -125 229 0
-125 -502 0
229 -502 0
125 -229 502 0
c gate 503 128 -502 0
128 -503 0
-502 -503 0
-128 502 503 0
c gate 504 -501 503 0
-501 -504 0
503 -504 0
501 -503 504 0
c gate 505 -80 126 0
-80 -505 0
126 -505 0
80 -126 505 0
c gate 506 -82 -126 0
-82 -506 0
-126 -506 0
82 126 506 0
c gate 507 -125 -506 0
-125 -507 0
-506 -507 0
125 506 507 0
c gate 508 -505 507 0
-505 -508 0
507 -508 0
505 -507 508 0
c gate 509 -79 126 0
-79 -509 0
126 -509 0
79 -126 509 0
c gate 510 -81 -126 0
-81 -510 0
-126 -510 0
81 126 510 0
c gate 511 125 -510 0
125 -511 0
-510 -511 0
-125 510 511 0
c gate 512 -509 511 0
-509 -512 0
511 -512 0
509 -511 512 0
c gate 513 -128 -512 0
-128 -513 0
-512 -513 0
128 512 513 0
c gate 514 -508 513 0
-508 -514 0
513 -514 0
508 -513 514 0
c gate 515 -127 -514 0
-127 -515 0
-514 -515 0
127 514 515 0
c gate 516 -504 515 0
-504 -516 0
515 -516 0
504 -515 516 0
c gate 517 -130 -516 0
-130 -517 0
-516 -517 0
130 516 517 0
c gate 518 -497 517 0
-497 -518 0
517 -518 0
497 -517 518 0
c gate 519 49 -126 0
49 -519 0
-126 -519 0
-49 126 519 0
c gate 520 47 126 0
47 -520 0
126 -520 0
-47 -126 520 0
c gate 521 125 -520 0
125 -521 0
-520 -521 0
-125 520 521 0
c gate 522 -519 521 0
-519 -522 0
521 -522 0
519 -521 522 0
c gate 523 48 126 0
48 -523 0
126 -523 0
-48 -126 523 0
c gate 524 50 -126 0
50 -524 0
-126 -524 0
-50 126 524 0
c gate 525 -125 -524 0
-125 -525 0
-524 -525 0
125 524 525 0
c gate 526 -523 525 0
-523 -526 0
525 -526 0
523 -525 526 0
c gate 527 -128 -526 0
-128 -527 0
-526 -527 0
128 526 527 0
c gate 528 -522 527 0
-522 -528 0
527 -528 0
522 -527 528 0
c gate 529 42 -126 0
42 -529 0
-126 -529 0
-42 126 529 0
c gate 530 40 126 0
40 -530 0
126 -530 0
-40 -126 530 0
c gate 531 -125 -530 0
-125 -531 0
-530 -531 0
125 530 531 0
c gate 532 -529 531 0
-529 -532 0
531 -532 0
529 -531 532 0
c gate 533 39 126 0
39 -533 0
126 -533 0
-39 -126 533 0
c gate 534 41 -126 0
41 -534 0
-126 -534 0
-41 126 534 0
c gate 535 125 -534 0
125 -535 0
-534 -535 0
-125 534 535 0
c gate 536 -533 535 0
-533 -536 0
535 -536 0
533 -535 536 0
c gate 537 128 -536 0
128 -537 0
-536 -537 0
-128 536 537 0
c gate 538 -532 537 0
-532 -538 0
537 -538 0
532 -537 538 0
c gate 539 -127 -538 0
-127 -539 0
-538 -539 0
127 538 539 0
c gate 540 -528 539 0
-528 -540 0
539 -540 0
528 -539 540 0
c gate 541 46 -126 0
46 -541 0
-126 -541 0
-46 126 541 0
c gate 542 44 126 0
44 -542 0
126 -542 0
-44 -126 542 0
c gate 543 -125 -542 0
-125 -543 0
-542 -543 0
125 542 543 0
c gate 544 -541 543 0
-541 -544 0
543 -544 0
541 -543 544 0
c gate 545 45 -126 0
45 -545 0
-126 -545 0
-45 126 545 0
c gate 546 43 126 0
43 -546 0
126 -546 0
-43 -126 546 0
c gate 547 125 -546 0
125 -547 0
-546 -547 0
-125 546 547 0
c gate 548 -545 547 0
-545 -548 0
547 -548 0
545 -547 548 0
c gate 549 -128 -548 0
-128 -549 0
-548 -549 0
128 548 549 0
c gate 550 -544 549 0
-544 -550 0
549 -550 0
544 -549 550 0
c gate 551 35 126 0
35 -551 0
126 -551 0
-35 -126 551 0
c gate 552 37 -126 0
37 -552 0
-126 -552 0
-37 126 552 0
c gate 553 125 -552 0
125 -553 0
-552 -553 0
-125 552 553 0
c gate 554 -551 553 0
-551 -554 0
553 -554 0
551 -553 554 0
c gate 555 36 126 0
36 -555 0
126 -555 0
-36 -126 555 0
c gate 556 38 -126 0
38 -556 0
-126 -556 0
-38 126 556 0
c gate 557 -125 -556 0
-125 -557 0
-556 -557 0
125 556 557 0
c gate 558 -555 557 0
-555 -558 0
557 -558 0
555 -557 558 0
c gate 559 128 -558 0
128 -559 0
-558 -559 0
-128 558 559 0
c gate 560 -554 559 0
-554 -560 0
559 -560 0
554 -559 560 0
c gate 561 127 -560 0
127 -561 0
-560 -561 0
-127 560 561 0
c gate 562 -550 561 0
-550 -562 0
561 -562 0
550 -561 562 0
c gate 563 -540 -562 0
-540 -563 0
-562 -563 0
540 562 563 0
c gate 564 130 -563 0
130 -564 0
-563 -564 0
-130 563 564 0
c gate 565 -129 -564 0
-129 -565 0
-564 -565 0
129 564 565 0
c gate 566 -518 565 0
-518 -566 0
565 -566 0
518 -565 566 0
c gate 567 131 -566 0
131 -567 0
-566 -567 0
-131 566 567 0
c gate 568 33 -126 0
33 -568 0
-126 -568 0
-33 126 568 0
c gate 569 31 126 0
31 -569 0
126 -569 0
-31 -126 569 0
c gate 570 125 -569 0
125 -570 0
-569 -570 0
-125 569 570 0
c gate 571 -568 570 0
-568 -571 0
570 -571 0
568 -570 571 0
c gate 572 32 126 0
32 -572 0
126 -572 0
-32 -126 572 0
c gate 573 34 -126 0
34 -573 0
-126 -573 0
-34 126 573 0
c gate 574 -125 -573 0
-125 -574 0
-573 -574 0
125 573 574 0
c gate 575 -572 574 0
-572 -575 0
574 -575 0
572 -574 575 0
c gate 576 -128 -575 0
-128 -576 0
-575 -576 0
128 575 576 0
c gate 577 -571 576 0
-571 -577 0
576 -577 0
571 -576 577 0
c gate 578 26 -126 0
26 -578 0
-126 -578 0
-26 126 578 0
c gate 579 24 126 0
24 -579 0
126 -579 0
-24 -126 579 0
c gate 580 -125 -579 0
-125 -580 0
-579 -580 0
125 579 580 0
c gate 581 -578 580 0
-578 -581 0
580 -581 0
578 -580 581 0
c gate 582 23 126 0
23 -582 0
126 -582 0
-23 -126 582 0
c gate 583 25 -126 0
25 -583 0
-126 -583 0
-25 126 583 0
c gate 584 125 -583 0
125 -584 0
-583 -584 0
-125 583 584 0
c gate 585 -582 584 0
-582 -585 0
584 -585 0
582 -584 585 0
c gate 586 128 -585 0
128 -586 0
-585 -586 0
-128 585 586 0
c gate 587 -581 586 0
-581 -587 0
586 -587 0
581 -586 587 0
c gate 588 -127 -587 0
-127 -588 0
-587 -588 0
127 587 588 0
c gate 589 -577 588 0
-577 -589 0
588 -589 0
577 -588 589 0
c gate 590 29 -126 0
29 -590 0
-126 -590 0
-29 126 590 0
c gate 591 27 126 0
27 -591 0
126 -591 0
-27 -126 591 0
c gate 592 125 -591 0
125 -592 0
-591 -592 0
-125 591 592 0
c gate 593 -590 592 0
-590 -593 0
592 -593 0
590 -592 593 0
c gate 594 28 126 0
28 -594 0
126 -594 0
-28 -126 594 0
c gate 595 30 -126 0
30 -595 0
-126 -595 0
-30 126 595 0
c gate 596 -125 -595 0
-125 -596 0
-595 -596 0
125 595 596 0
c gate 597 -594 596 0
-594 -597 0
596 -597 0
594 -596 597 0
c gate 598 -128 -597 0
-128 -598 0
-597 -598 0
128 597 598 0
c gate 599 -593 598 0
-593 -599 0
598 -599 0
593 -598 599 0
c gate 600 22 -126 0
22 -600 0
-126 -600 0
-22 126 600 0
c gate 601 20 126 0
20 -601 0
126 -601 0
-20 -126 601 0
c gate 602 -125 -601 0
-125 -602 0
-601 -602 0
125 601 602 0
c gate 603 -600 602 0
-600 -603 0
602 -603 0
600 -602 603 0
c gate 604 19 126 0
19 -604 0
126 -604 0
-19 -126 604 0
c gate 605 21 -126 0
21 -605 0
-126 -605 0
-21 126 605 0
c gate 606 125 -605 0
125 -606 0
-605 -606 0
-125 605 606 0
c gate 607 -604 606 0
-604 -607 0
606 -607 0
604 -606 607 0
c gate 608 128 -607 0
128 -608 0
-607 -608 0
-128 607 608 0
c gate 609 -603 608 0
-603 -609 0
608 -609 0
603 -608 609 0
c gate 610 127 -609 0
127 -610 0
-609 -610 0
-127 609 610 0
c gate 611 -599 610 0
-599 -611 0
610 -611 0
599 -610 611 0
c gate 612 -589 -611 0
-589 -612 0
-611 -612 0
589 611 612 0
c gate 613 130 -612 0
130 -613 0
-612 -613 0
-130 612 613 0
c gate 614 61 -126 0
61 -614 0
-126 -614 0
-61 126 614 0
c gate 615 59 126 0
59 -615 0
126 -615 0
-59 -126 615 0
c gate 616 125 -615 0
125 -616 0
-615 -616 0
-125 615 616 0
c gate 617 -614 616 0
-614 -617 0
616 -617 0
614 -616 617 0
c gate 618 60 126 0
60 -618 0
126 -618 0
-60 -126 618 0
c gate 619 62 -126 0
62 -619 0
-126 -619 0
-62 126 619 0
c gate 620 -125 -619 0
-125 -620 0
-619 -620 0
125 619 620 0
c gate 621 -618 620 0
-618 -621 0
620 -621 0
618 -620 621 0
c gate 622 -128 -621 0
-128 -622 0
-621 -622 0
128 621 622 0
c gate 623 -617 622 0
-617 -623 0
622 -623 0
617 -622 623 0
c gate 624 54 -126 0
54 -624 0
-126 -624 0
-54 126 624 0
c gate 625 52 126 0
52 -625 0
126 -625 0
-52 -126 625 0
c gate 626 -125 -625 0
-125 -626 0
-625 -626 0
125 625 626 0
c gate 627 -624 626 0
-624 -627 0
626 -627 0
624 -626 627 0
c gate 628 51 126 0
51 -628 0
126 -628 0
-51 -126 628 0
c gate 629 53 -126 0
53 -629 0
-126 -629 0
-53 126 629 0
c gate 630 125 -629 0
125 -630 0
-629 -630 0
-125 629 630 0
c gate 631 -628 630 0
-628 -631 0
630 -631 0
628 -630 631 0
c gate 632 128 -631 0
128 -632 0
-631 -632 0
-128 631 632 0
c gate 633 -627 632 0
-627 -633 0
632 -633 0
627 -632 633 0
c gate 634 127 -633 0
127 -634 0
-633 -634 0
-127 633 634 0
c gate 635 -623 634 0
-623 -635 0
634 -635 0
623 -634 635 0
c gate 636 -63 126 0
-63 -636 0
126 -636 0
63 -126 636 0
c gate 637 -65 -126 0
-65 -637 0
-126 -637 0
65 126 637 0
c gate 638 -636 -637 0
-636 -638 0
-637 -638 0
636 637 638 0
c gate 639 125 -638 0
125 -639 0
-638 -639 0
-125 638 639 0
c gate 640 -125 -239 0
-125 -640 0
-239 -640 0
125 239 640 0
c gate 641 -128 -640 0
-128 -641 0
-640 -641 0
128 640 641 0
c gate 642 -639 641 0
-639 -642 0
641 -642 0
639 -641 642 0
c gate 643 -56 126 0
-56 -643 0
126 -643 0
56 -126 643 0
c gate 644 -58 -126 0
-58 -644 0
-126 -644 0
58 126 644 0
c gate 645 -125 -644 0
-125 -645 0
-644 -645 0
125 644 645 0
c gate 646 -643 645 0
-643 -646 0
645 -646 0
643 -645 646 0
c gate 647 -57 -126 0
-57 -647 0
-126 -647 0
57 126 647 0
c gate 648 -55 126 0
-55 -648 0
126 -648 0
55 -126 648 0
c gate 649 125 -648 0
125 -649 0
-648 -649 0
-125 648 649 0
c gate 650 -647 649 0
-647 -650 0
649 -650 0
647 -649 650 0
c gate 651 -646 -650 0
-646 -651 0
-650 -651 0
646 650 651 0
c gate 652 128 -651 0
128 -652 0
-651 -652 0
-128 651 652 0
c gate 653 -127 -652 0
-127 -653 0
-652 -653 0
127 652 653 0
c gate 654 -642 653 0
-642 -654 0
653 -654 0
642 -653 654 0
c gate 655 -635 -654 0
-635 -655 0
-654 -655 0
635 654 655 0
c gate 656 -130 -655 0
-130 -656 0
-655 -656 0
130 655 656 0
c gate 657 129 -656 0
129 -657 0
-656 -657 0
-129 656 657 0
c gate 658 -613 657 0
-613 -658 0
657 -658 0
613 -657 658 0
c gate 659 567 658 0
567 -659 0
658 -659 0
-567 -658 659 0
c gate 660 -481 -659 0
-481 -660 0
-659 -660 0
481 659 660 0
c gate 661 -404 660 0
-404 -661 0
660 -661 0
404 -660 661 0
c gate 662 125 148 0
125 -662 0
148 -662 0
-125 -148 662 0
c gate 663 -125 297 0
-125 -663 0
297 -663 0
125 -297 663 0
c gate 664 -128 -663 0
-128 -664 0
-663 -664 0
128 663 664 0
c gate 665 -662 664 0
-662 -665 0
664 -665 0
662 -664 665 0
c gate 666 125 138 0
125 -666 0
138 -666 0
-125 -138 666 0
c gate 667 -90 -126 0
-90 -667 0
-126 -667 0
90 126 667 0
c gate 668 -88 126 0
-88 -668 0
126 -668 0
88 -126 668 0
c gate 669 -125 -668 0
-125 -669 0
-668 -669 0
125 668 669 0
c gate 670 -667 669 0
-667 -670 0
669 -670 0
667 -669 670 0
c gate 671 128 -670 0
128 -671 0
-670 -671 0
-128 670 671 0
c gate 672 -666 671 0
-666 -672 0
671 -672 0
666 -671 672 0
c gate 673 -665 -672 0
-665 -673 0
-672 -673 0
665 672 673 0
c gate 674 127 -673 0
127 -674 0
-673 -674 0
-127 673 674 0
c gate 675 125 160 0
125 -675 0
160 -675 0
-125 -160 675 0
c gate 676 -94 -126 0
-94 -676 0
-126 -676 0
94 126 676 0
c gate 677 -92 126 0
-92 -677 0
126 -677 0
92 -126 677 0
c gate 678 -125 -677 0
-125 -678 0
-677 -678 0
125 677 678 0
c gate 679 -676 678 0
-676 -679 0
678 -679 0
676 -678 679 0
c gate 680 128 -679 0
128 -680 0
-679 -680 0
-128 679 680 0
c gate 681 -675 680 0
-675 -681 0
680 -681 0
675 -680 681 0
c gate 682 -99 126 0
-99 -682 0
126 -682 0
99 -126 682 0
c gate 683 -101 -126 0
-101 -683 0
-126 -683 0
101 126 683 0
c gate 684 125 -683 0
125 -684 0
-683 -684 0
-125 683 684 0
c gate 685 -682 684 0
-682 -685 0
684 -685 0
682 -684 685 0
c gate 686 -125 275 0
-125 -686 0
275 -686 0
125 -275 686 0
c gate 687 -128 -686 0
-128 -687 0
-686 -687 0
128 686 687 0
c gate 688 -685 687 0
-685 -688 0
687 -688 0
685 -687 688 0
c gate 689 -681 -688 0
-681 -689 0
-688 -689 0
681 688 689 0
c gate 690 -127 -689 0
-127 -690 0
-689 -690 0
127 689 690 0
c gate 691 130 -690 0
130 -691 0
-690 -691 0
-130 690 691 0
c gate 692 -674 691 0
-674 -692 0
691 -692 0
674 -691 692 0
c gate 693 125 184 0
125 -693 0
184 -693 0
-125 -184 693 0
c gate 694 -120 -126 0
-120 -694 0
-126 -694 0
120 126 694 0
c gate 695 -118 126 0
-118 -695 0
126 -695 0
118 -126 695 0
c gate 696 -125 -695 0
-125 -696 0
-695 -696 0
125 695 696 0
c gate 697 -694 696 0
-694 -697 0
696 -697 0
694 -696 697 0
c gate 698 128 -697 0
128 -698 0
-697 -698 0
-128 697 698 0
c gate 699 -693 698 0
-693 -699 0
698 -699 0
693 -698 699 0
c gate 700 125 194 0
125 -700 0
194 -700 0
-125 -194 700 0
c gate 701 -4 -126 0
-4 -701 0
-126 -701 0
4 126 701 0
c gate 702 -2 126 0
-2 -702 0
126 -702 0
2 -126 702 0
c gate 703 -125 -702 0
-125 -703 0
-702 -703 0
125 702 703 0
c gate 704 -701 703 0
-701 -704 0
703 -704 0
701 -703 704 0
c gate 705 -128 -704 0
-128 -705 0
-704 -705 0
128 704 705 0
c gate 706 -700 705 0
-700 -706 0
705 -706 0
700 -705 706 0
c gate 707 127 -706 0
127 -707 0
-706 -707 0
-127 706 707 0
c gate 708 -699 707 0
-699 -708 0
707 -708 0
699 -707 708 0
c gate 709 125 206 0
125 -709 0
206 -709 0
-125 -206 709 0
c gate 710 -124 -126 0
-124 -710 0
-126 -710 0
124 126 710 0
c gate 711 -122 126 0
-122 -711 0
126 -711 0
122 -126 711 0
c gate 712 -125 -711 0
-125 -712 0
-711 -712 0
125 711 712 0
c gate 713 -710 712 0
-710 -713 0
712 -713 0
710 -712 713 0
c gate 714 128 -713 0
128 -714 0
-713 -714 0
-128 713 714 0
c gate 715 -709 714 0
-709 -715 0
714 -715 0
709 -714 715 0
c gate 716 -6 126 0
-6 -716 0
126 -716 0
6 -126 716 0
c gate 717 -8 -126 0
-8 -717 0
-126 -717 0
8 126 717 0
c gate 718 -125 -717 0
-125 -718 0
-717 -718 0
125 717 718 0
c gate 719 -716 718 0
-716 -719 0
718 -719 0
716 -718 719 0
c gate 720 -5 126 0
-5 -720 0
126 -720 0
5 -126 720 0
c gate 721 -7 -126 0
-7 -721 0
-126 -721 0
7 126 721 0
c gate 722 125 -721 0
125 -722 0
-721 -722 0
-125 721 722 0
c gate 723 -720 722 0
-720 -723 0
722 -723 0
720 -722 723 0
c gate 724 -128 -723 0
-128 -724 0
-723 -724 0
128 723 724 0
c gate 725 -719 724 0
-719 -725 0
724 -725 0
719 -724 725 0
c gate 726 -127 -725 0
-127 -726 0
-725 -726 0
127 725 726 0
c gate 727 -715 726 0
-715 -727 0
726 -727 0
715 -726 727 0
c gate 728 -708 -727 0
-708 -728 0
-727 -728 0
708 727 728 0
c gate 729 -130 -728 0
-130 -729 0
-728 -729 0
130 728 729 0
c gate 730 129 -729 0
129 -730 0
-729 -730 0
-129 729 730 0
c gate 731 -692 730 0
-692 -731 0
730 -731 0
692 -730 731 0
c gate 732 131 731 0
131 -732 0
731 -732 0
-131 -731 732 0
c gate 733 -131 480 0
-131 -733 0
480 -733 0
131 -480 733 0
c gate 734 661 -733 0
661 -734 0
-733 -734 0
-661 733 734 0
c gate 735 -226 -321 0
-226 -735 0
-321 -735 0
226 321 735 0
c gate 736 -734 735 0
-734 -736 0
735 -736 0
734 -735 736 0
c gate 737 -732 736 0
-732 -737 0
736 -737 0
732 -736 737 0
c gate 738 -567 658 0
-567 -738 0
658 -738 0
567 -658 738 0
c gate 739 -131 403 0
-131 -739 0
403 -739 0
131 -403 739 0
c gate 740 -738 -739 0
-738 -740 0
-739 -740 0
738 739 740 0
c gate 741 -737 740 0
-737 -741 0
740 -741 0
737 -740 741 0
c gate 742 -661 741 0
-661 -742 0
741 -742 0
661 -741 742 0
c gate 743 -321 742 0
-321 -743 0
742 -743 0
321 -742 743 0
c gate 744 -131 225 0
-131 -744 0
225 -744 0
131 -225 744 0
c gate 745 -131 320 0
-131 -745 0
320 -745 0
131 -320 745 0
c gate 746 -131 731 0
-131 -746 0
731 -746 0
131 -731 746 0
c gate 747 -745 -746 0
-745 -747 0
-746 -747 0
745 746 747 0
c gate 748 -744 747 0
-744 -748 0
747 -748 0
744 -747 748 0
c gate 749 -741 -748 0
-741 -749 0
-748 -749 0
741 748 749 0
c gate 750 479 749 0
479 -750 0
749 -750 0
-479 -749 750 0
c gate 751 -743 -750 0
-743 -751 0
-750 -751 0
743 750 751 0
c gate 752 226 -751 0
226 -752 0
-751 -752 0
-226 751 752 0
c gate 753 -226 751 0
-226 -753 0
751 -753 0
226 -751 753 0
c gate 754 -752 -753 0
-752 -754 0
-753 -754 0
752 753 754 0
c PO
754 0
